52      4       
16      15      14      14      
0       0       0       0       0       3       2       3       4       
2       6       0       0       7       1       5       
4       4       0       0       7       1       26      
2       10      0       0       5       1       9       
3       0       0       7       2       1       6       
7       5       0       10      0       1       7       
5       0       0       2       0       1       8       
5       9       0       0       4       1       11      
8       7       2       0       8       1       10      
3       1       0       8       3       1       16      
2       0       5       0       9       1       12      
3       0       2       9       0       1       13      
8       0       0       1       0       1       14      
6       9       2       2       6       1       15      
3       2       0       0       0       1       17      
6       0       0       0       1       1       20      
10      7       6       0       0       1       18      
9       0       9       4       0       1       19      
10      9       9       5       8       1       21      
6       0       7       3       0       1       24      
7       0       1       1       0       1       22      
1       0       7       0       6       1       23      
7       3       0       0       0       1       30      
2       9       4       0       0       1       25      
5       0       8       0       9       1       27      
10      0       0       0       7       1       28      
2       10      1       9       0       2       29      51      
1       0       2       8       0       1       38      
9       8       1       4       4       1       41      
4       0       0       8       0       1       31      
9       2       0       0       6       2       32      38      
4       7       6       0       0       1       33      
8       0       0       8       0       1       34      
10      10      9       0       9       1       35      
10      8       10      0       0       1       36      
10      3       0       8       0       1       37      
9       0       0       3       0       1       47      
10      0       0       0       6       1       39      
8       0       0       10      6       1       40      
7       3       4       0       0       1       42      
1       2       0       0       0       1       48      
6       0       0       0       1       1       43      
6       8       9       0       9       1       44      
5       4       0       1       0       1       45      
4       0       0       0       4       1       46      
1       8       3       0       0       1       49      
2       0       0       1       3       1       50      
6       0       6       3       1       1       52      
8       3       0       0       0       1       52      
8       6       0       9       0       1       52      
10      5       5       8       2       1       52      
0       0       0       0       0       0       
